Data path: /scratch/opt/lxu/CFLG/benchmarks/random_A
Instance: r_20_0.1_23.txt
Result path: /scratch/opt/lxu/CFLG/results/random_A
Solver: Gurobi
Time limit: 7200
Formulation: LEFPAD
Cover: Large
julia --project=. src/main.jl /scratch/opt/lxu/CFLG/benchmarks/random_A r_20_0.1_23.txt /scratch/opt/lxu/CFLG/results/random_A Gurobi 7200 LEFPAD Large
The latest version of Julia in the `release` channel is 1.11.5+0.x64.linux.gnu. You currently have `1.11.4+0.x64.linux.gnu` installed. Run:

  juliaup update

in your terminal shell to install Julia 1.11.5+0.x64.linux.gnu and update the `release` channel to that version.
/scratch/opt/lxu/CFLG/benchmarks/random_A Gurobi 7200.0 /scratch/opt/lxu/CFLG/results/random_A r_20_0.1_23.txt LEFPAD Large
/scratch/opt/lxu/CFLG/benchmarks/random_A/r_20_0.1_23.txt

 read graph
data loaded

problem_graph/original graph: node: 20/20 edge: 23/23 dlt: 1.2027549052001565 break_avg_len: 0.6013774526000782 break_max_len: 0.9478387600141464Vbar/V, Ebar/E(15, 20, 18, 23)
(Dict{Int64, Bool}(5 => 1, 20 => 1, 10 => 1, 17 => 1), Dict(5 => 0.37894789187507083, 20 => 0.7989538926409662, 10 => 0.3155243071535709, 17 => 0.3293123867521173))Set parameter TokenServer to value "solice01.zib.de"
Set parameter Threads to value 1
Set parameter OutputFlag to value 1
Gurobi Optimizer version 12.0.1 build v12.0.1rc0 (linux64 - "Debian GNU/Linux 12 (bookworm)")

CPU model: Intel(R) Xeon(R) Gold 5122 CPU @ 3.60GHz, instruction set [SSE2|AVX|AVX2|AVX512]
Thread count: 8 physical cores, 16 logical processors, using up to 1 threads

Non-default parameters:
Threads  1

Optimize a model with 41 rows, 66 columns and 110 nonzeros
Model fingerprint: 0xfddf6963
Coefficient statistics:
  Matrix range     [1e+00, 1e+00]
  Objective range  [1e+00, 1e+00]
  Bounds range     [1e+00, 1e+00]
  RHS range        [1e+00, 1e+00]
Presolve removed 41 rows and 66 columns
Presolve time: 0.00s
Presolve: All rows and columns removed
Iteration    Objective       Primal Inf.    Dual Inf.      Time
       0    4.0000000e+00   0.000000e+00   0.000000e+00      0s

Solved in 0 iterations and 0.00 seconds (0.00 work units)
Optimal objective  4.000000000e+00

User-callback calls 35, time in user-callback 0.00 sec
elapsed CPU time: 1.622433 seconds
Set parameter TokenServer to value "solice01.zib.de"
Set parameter Threads to value 1
Set parameter OutputFlag to value 1
Set parameter MIPGap to value 0.0001
Set parameter TimeLimit to value 7198.377567

 more cuts: false 1.2027549052001565 false
is_attach:trueformulation:LEFPAD0 22 0

 model loaded

Min ye[1] + ye[2] + ye[3] + ye[4] + ye[5] + ye[6] + ye[7] + ye[8] + ye[9] + ye[10] + ye[11] + ye[12] + ye[13] + ye[14] + ye[15] + ye[16] + ye[17] + ye[18] + yv[1] + yv[2] + yv[3] + yv[4] + yv[5] + yv[6] + yv[7] + yv[8] + yv[9] + yv[10] + yv[11] + yv[12] + yv[13] + yv[14] + yv[15] + yv[16] + yv[17] + yv[18] + yv[19]
Subject to
 q[1,a] ≥ 0
 q[2,a] ≥ 0
 q[3,a] ≥ 0
 q[4,a] ≥ 0
 q[5,a] ≥ 0
 q[6,a] ≥ 0
 q[7,a] ≥ 0
 q[8,a] ≥ 0
 q[9,a] ≥ 0
 q[10,a] ≥ 0
 q[11,a] ≥ 0
 q[12,a] ≥ 0
 q[13,a] ≥ 0
 q[14,a] ≥ 0
 q[15,a] ≥ 0
 q[16,a] ≥ 0
 q[17,a] ≥ 0
 q[18,a] ≥ 0
 q[19,a] ≥ 0
 q[20,a] ≥ 0
 q[21,a] ≥ 0
 q[22,a] ≥ 0
 q[1,b] ≥ 0
 q[2,b] ≥ 0
 q[3,b] ≥ 0
 q[4,b] ≥ 0
 q[5,b] ≥ 0
 q[6,b] ≥ 0
 q[7,b] ≥ 0
 q[8,b] ≥ 0
 q[9,b] ≥ 0
 q[10,b] ≥ 0
 q[11,b] ≥ 0
 q[12,b] ≥ 0
 q[13,b] ≥ 0
 q[14,b] ≥ 0
 q[15,b] ≥ 0
 q[16,b] ≥ 0
 q[17,b] ≥ 0
 q[18,b] ≥ 0
 q[19,b] ≥ 0
 q[20,b] ≥ 0
 q[21,b] ≥ 0
 q[22,b] ≥ 0
 rv[1] ≥ 0
 rv[2] ≥ 0
 rv[3] ≥ 0
 rv[4] ≥ 0
 rv[5] ≥ 0
 rv[6] ≥ 0
[[...1478 constraints skipped...]]
 yv[19] binary
 q[1,a] - q[1,b] = 0
 q[2,a] - q[2,b] = 0
 q[3,a] - q[3,b] = 0
 q[4,a] - q[4,b] = 0
 q[5,a] - q[5,b] = 0
 q[6,a] - q[6,b] = 0
 q[7,a] - q[7,b] = 0
 q[8,a] - q[8,b] = 0
 q[9,a] - q[9,b] = 0
 q[10,a] - q[10,b] = 0
 q[11,a] - q[11,b] = 0
 q[12,a] - q[12,b] = 0
 q[13,a] - q[13,b] = 0
 q[14,a] - q[14,b] = 0
 q[15,a] - q[15,b] = 0
 q[16,a] - q[16,b] = 0
 q[17,a] - q[17,b] = 0
 q[18,a] - q[18,b] = 0
 q[19,a] - q[19,b] = 0
 q[20,a] - q[20,b] = 0
 q[21,a] - q[21,b] = 0
 q[22,a] - q[22,b] = 0
 x[1] + ze[1,(8, :b)] + ze[1,(19, :b)] + ze[1,(5, :a)] + ze[1,(6, :b)] + ze[1,(16, :a)] + ze[1,(9, :b)] + ze[1,(8, :a)] + ze[1,(19, :a)] + ze[1,(6, :a)] + ze[1,(9, :a)] + ze[1,(14, :a)] + ze[1,(4, :b)] + ze[1,(7, :a)] + ze[1,(10, :b)] + ze[1,(5, :b)] + ze[1,(4, :a)] + ze[1,(13, :a)] = 1
 x[2] + ze[2,(5, :b)] + ze[2,(13, :b)] + ze[2,(7, :b)] + ze[2,(7, :a)] + ze[2,(9, :a)] = 1
 x[3] + ze[3,(20, :a)] + ze[3,(14, :b)] + ze[3,(3, :b)] + ze[3,(1, :a)] + ze[3,(3, :a)] + ze[3,(15, :b)] + ze[3,(21, :b)] + ze[3,(20, :b)] + ze[3,(15, :a)] + ze[3,(21, :a)] + ze[3,(2, :a)] = 1
 x[4] + ze[4,(22, :b)] + ze[4,(5, :a)] + ze[4,(6, :b)] + ze[4,(16, :a)] + ze[4,(14, :b)] + ze[4,(8, :a)] + ze[4,(19, :a)] + ze[4,(22, :a)] + ze[4,(7, :b)] + ze[4,(9, :a)] + ze[4,(14, :a)] + ze[4,(13, :b)] + ze[4,(15, :b)] + ze[4,(21, :b)] + ze[4,(4, :b)] + ze[4,(7, :a)] + ze[4,(5, :b)] + ze[4,(16, :b)] + ze[4,(13, :a)] + ze[4,(4, :a)] + ze[4,(21, :a)] + ze[4,(18, :a)] = 1
 x[5] + ze[5,(12, :a)] + ze[5,(12, :b)] + ze[5,(17, :b)] + ze[5,(1, :b)] + ze[5,(11, :b)] + ze[5,(10, :b)] + ze[5,(11, :a)] + ze[5,(10, :a)] + ze[5,(18, :b)] + ze[5,(9, :b)] = 1
 x[6] + ze[6,(22, :b)] + ze[6,(5, :a)] + ze[6,(16, :a)] + ze[6,(22, :a)] + ze[6,(7, :b)] + ze[6,(14, :a)] + ze[6,(13, :b)] + ze[6,(18, :b)] + ze[6,(16, :b)] + ze[6,(13, :a)] + ze[6,(12, :b)] + ze[6,(18, :a)] = 1
 x[7] + ze[7,(9, :b)] + ze[7,(12, :a)] + ze[7,(12, :b)] + ze[7,(22, :a)] + ze[7,(16, :b)] + ze[7,(10, :b)] + ze[7,(11, :a)] + ze[7,(10, :a)] + ze[7,(18, :a)] + ze[7,(18, :b)] = 1
 x[8] + ze[8,(8, :b)] + ze[8,(19, :b)] + ze[8,(5, :a)] + ze[8,(6, :b)] + ze[8,(16, :a)] + ze[8,(8, :a)] + ze[8,(19, :a)] + ze[8,(7, :b)] + ze[8,(6, :a)] + ze[8,(9, :a)] + ze[8,(14, :a)] + ze[8,(13, :b)] + ze[8,(4, :b)] + ze[8,(7, :a)] + ze[8,(5, :b)] + ze[8,(13, :a)] + ze[8,(4, :a)] = 1
 x[9] + ze[9,(9, :b)] + ze[9,(12, :a)] + ze[9,(8, :a)] + ze[9,(19, :a)] + ze[9,(11, :a)] + ze[9,(9, :a)] + ze[9,(10, :b)] + ze[9,(18, :b)] + ze[9,(4, :a)] + ze[9,(10, :a)] + ze[9,(12, :b)] = 1
 x[10] + ze[10,(17, :b)] + ze[10,(1, :b)] + ze[10,(11, :b)] + ze[10,(20, :a)] + ze[10,(3, :b)] + ze[10,(17, :a)] + ze[10,(1, :a)] + ze[10,(3, :a)] + ze[10,(2, :b)] + ze[10,(15, :a)] + ze[10,(2, :a)] = 1
 x[11] + ze[11,(5, :a)] + ze[11,(16, :a)] + ze[11,(20, :a)] + ze[11,(14, :b)] + ze[11,(7, :b)] + ze[11,(14, :a)] + ze[11,(3, :a)] + ze[11,(13, :b)] + ze[11,(15, :b)] + ze[11,(13, :a)] + ze[11,(15, :a)] = 1
 x[12] + ze[12,(17, :b)] + ze[12,(3, :b)] + ze[12,(17, :a)] + ze[12,(1, :b)] + ze[12,(1, :a)] + ze[12,(2, :b)] + ze[12,(11, :b)] + ze[12,(2, :a)] = 1
 x[13] + ze[13,(8, :b)] + ze[13,(5, :a)] + ze[13,(6, :b)] + ze[13,(16, :a)] + ze[13,(14, :b)] + ze[13,(22, :a)] + ze[13,(6, :a)] + ze[13,(14, :a)] + ze[13,(4, :b)] + ze[13,(15, :b)] + ze[13,(5, :b)] + ze[13,(16, :b)] + ze[13,(21, :a)] + ze[13,(18, :a)] = 1
 x[14] + ze[14,(17, :b)] + ze[14,(1, :b)] + ze[14,(11, :b)] + ze[14,(12, :a)] + ze[14,(3, :b)] + ze[14,(17, :a)] + ze[14,(1, :a)] + ze[14,(11, :a)] + ze[14,(2, :b)] + ze[14,(2, :a)] + ze[14,(10, :a)] = 1
 x[15] + ze[15,(8, :b)] + ze[15,(19, :b)] + ze[15,(5, :a)] + ze[15,(6, :b)] + ze[15,(16, :a)] + ze[15,(8, :a)] + ze[15,(19, :a)] + ze[15,(7, :b)] + ze[15,(6, :a)] + ze[15,(9, :a)] + ze[15,(14, :a)] + ze[15,(4, :b)] + ze[15,(13, :b)] + ze[15,(7, :a)] + ze[15,(5, :b)] + ze[15,(4, :a)] + ze[15,(13, :a)] = 1
 x[16] + ze[16,(5, :b)] + ze[16,(7, :a)] + ze[16,(9, :a)] = 1
 x[17] + ze[17,(3, :a)] + ze[17,(15, :a)] = 1
 x[18] + ze[18,(3, :a)] + ze[18,(5, :a)] + ze[18,(13, :a)] + ze[18,(16, :a)] + ze[18,(20, :a)] = 1
 x[19] + ze[19,(14, :a)] + ze[19,(5, :a)] + ze[19,(13, :a)] + ze[19,(18, :a)] = 1
 ye[19] = 0
 ye[20] = 0
 ye[21] = 0
 ye[22] = 0
 q[19,a] = 0
 q[20,a] = 0
 q[21,a] = 0
 q[22,a] = 0
Gurobi Optimizer version 12.0.1 build v12.0.1rc0 (linux64 - "Debian GNU/Linux 12 (bookworm)")

CPU model: Intel(R) Xeon(R) Gold 5122 CPU @ 3.60GHz, instruction set [SSE2|AVX|AVX2|AVX512]
Thread count: 8 physical cores, 16 logical processors, using up to 1 threads

Non-default parameters:
TimeLimit  7198.377567
Threads  1

Optimize a model with 767 rows, 547 columns and 2139 nonzeros
Model fingerprint: 0x949e5291
Variable types: 264 continuous, 283 integer (283 binary)
Coefficient statistics:
  Matrix range     [4e-03, 1e+00]
  Objective range  [1e+00, 1e+00]
  Bounds range     [3e-01, 9e-01]
  RHS range        [1e-06, 1e+00]
Found heuristic solution: objective 8.0000000
Presolve removed 330 rows and 175 columns
Presolve time: 0.01s
Presolved: 437 rows, 372 columns, 1432 nonzeros
Variable types: 192 continuous, 180 integer (180 binary)

Root relaxation: objective 1.543156e+00, 285 iterations, 0.00 seconds (0.00 work units)

    Nodes    |    Current Node    |     Objective Bounds      |     Work
 Expl Unexpl |  Obj  Depth IntInf | Incumbent    BestBd   Gap | It/Node Time

     0     0    1.54316    0   48    8.00000    1.54316  80.7%     -    0s
H    0     0                       7.0000000    1.54316  78.0%     -    0s
H    0     0                       6.0000000    1.54316  74.3%     -    0s
H    0     0                       5.0000000    1.54316  69.1%     -    0s
     0     0    2.20577    0   60    5.00000    2.20577  55.9%     -    0s
     0     0    2.21646    0   63    5.00000    2.21646  55.7%     -    0s
     0     0    2.21646    0   57    5.00000    2.21646  55.7%     -    0s
     0     0    2.21646    0   57    5.00000    2.21646  55.7%     -    0s
     0     0    2.29930    0   80    5.00000    2.29930  54.0%     -    0s
     0     0    2.33242    0   58    5.00000    2.33242  53.4%     -    0s
     0     0    2.34146    0   60    5.00000    2.34146  53.2%     -    0s
     0     0    2.34263    0   65    5.00000    2.34263  53.1%     -    0s
     0     0    2.34281    0   64    5.00000    2.34281  53.1%     -    0s
     0     0    2.48220    0   80    5.00000    2.48220  50.4%     -    0s
     0     0    2.48829    0   71    5.00000    2.48829  50.2%     -    0s
     0     0    2.48869    0   75    5.00000    2.48869  50.2%     -    0s
     0     0    2.48872    0   75    5.00000    2.48872  50.2%     -    0s
     0     0    2.57143    0   63    5.00000    2.57143  48.6%     -    0s
     0     0    2.80000    0   77    5.00000    2.80000  44.0%     -    0s
     0     0    2.80000    0   82    5.00000    2.80000  44.0%     -    0s
     0     0    2.80000    0   82    5.00000    2.80000  44.0%     -    0s
     0     0    2.80000    0   83    5.00000    2.80000  44.0%     -    0s
     0     0    2.80000    0   76    5.00000    2.80000  44.0%     -    0s
     0     0    2.80000    0   82    5.00000    2.80000  44.0%     -    0s
     0     0    2.80000    0   82    5.00000    2.80000  44.0%     -    0s
     0     0    2.80000    0   71    5.00000    2.80000  44.0%     -    0s
     0     0    2.80000    0   82    5.00000    2.80000  44.0%     -    0s
     0     0    2.80000    0   80    5.00000    2.80000  44.0%     -    0s
     0     0    2.80000    0   78    5.00000    2.80000  44.0%     -    0s
     0     2    2.80000    0   78    5.00000    2.80000  44.0%     -    0s
H  128     6                       4.0000000    3.06856  23.3%  20.7    0s

Cutting planes:
  Cover: 13
  Implied bound: 6
  MIR: 16
  Flow cover: 7
  GUB cover: 1
  Zero half: 2
  Mod-K: 1
  RLT: 25
  Relax-and-lift: 3
  BQP: 8

Explored 129 nodes (4085 simplex iterations) in 0.26 seconds (0.14 work units)
Thread count was 1 (of 16 available processors)

Solution count 5: 4 5 6 ... 8

Optimal solution found (tolerance 1.00e-04)
Best objective 4.000000000000e+00, best bound 4.000000000000e+00, gap 0.0000%

User-callback calls 1118, time in user-callback 0.00 sec

 sepatime0 0 0
4.0Stat(MathOptInterface.OPTIMAL, 4.0, 4.0, 0.0, 0.0, 1.622433, 0.2597689628601074, 129, Main.CFLG.LEFPAD, "", #undef)
